SAT
-1 -100 -99 98 42 -2 81 23 4 -86 33 53 97 -92 58 -74 9 -70 48 71 -62 28 -60 52 54 11 -44 -18 -32 67 -80 -3 76 -34 29 -16 -38 -12 -27 25 78 -21 -50 -17 79 40 -20 43 89 7 59 -39 -35 -45 -75 49 73 36 -51 -41 47 15 83 -57 85 19 61 -88 -37 -13 96 -91 24 5 -82 66 30 -26 72 -68 56 -10 -93 6 8 -87 -84 63 14 90 22 95 -31 65 -64 77 55 69 94 46 0
